p td 29 51
1 2
1 4
1 6
1 7
2 3
2 5
3 4
4 5
5 6
5 7
6 8
6 10
7 8
7 10
8 9
8 11
9 13
10 12
10 13
11 12
12 13
14 15
14 16
14 18
15 16
15 18
16 17
16 19
17 18
17 20
18 19
18 21
18 22
19 20
20 21
20 22
21 22
21 23
21 25
22 23
22 25
23 24
23 26
24 25
25 27
25 28
25 29
26 27
27 28
27 29
28 29
